68
2
0 2 3 4 5 6 7 8 9 10 11 12 14 15 16 17 19 20 21 22 23 25 26 28 29 30 31 34 35 36 37 42 43 44 45 46 47 50 53 54 56 57 58 59 63 65 66 67
1 2 3 9 11 12 13 16 18 20 23 24 26 27 28 30 32 33 34 38 39 40 41 48 49 50 51 52 53 55 59 60 61 62 64
